Node	x	y	qi
1	59	71	27
2	49	32	23
3	10	61	31
4	3	84	27
5	82	93	20
6	21	99	24
7	2	12	25
8	22	12	16
9	62	43	28
10	73	42	32
11	50	85	27
12	22	3	26
13	75	14	28
14	12	55	29
15	3	5	27
16	59	42	17
17	22	30	25
18	9	21	27
19	75	53	26
20	57	79	24
21	89	7	19
22	23	85	24
23	8	74	23
24	73	59	28
25	7	19	31
26	16	100	23
27	25	63	17
28	8	67	24
29	27	17	16
30	43	14	38
31	53	31	28
32	44	18	23
33	43	14	24
34	53	33	28
35	68	66	25
36	6	69	22
37	18	24	22
38	36	60	25
39	27	8	30
40	34	57	21
Competitor: 	17	26	20	3
